% Auto-generated by scripts/generate_dzn.py
% problem_type   = regex
% instance       = regex_32
% source_json    = instances_json/1_medium_blowup/regex_32.json
% blowup         = 5.105263157894737
% representation = DFA

mode = 0;

var_count = 19;
n_constraints = 2;
Q = 86;
S = 2;
q0 = [1, 1];
F = [{50, 51, 52, 53, 54, 55, 56, 57, 58, 59, 60, 61, 62, 63, 64, 65, 66, 67, 68, 69, 70, 71, 72, 73, 74, 75, 76, 77, 78, 79, 80, 81, 82, 83, 84, 85, 86}, {10}];
weights = [5, 6, 10, 7, 10, 2, 9, 2, 6, 3, 8, 9, 10, 4, 6, 8, 1, 2, 2];
d_dfa = array3d(1..2, 1..86, 1..2, [
  % k = 1
    2, 1,
    3, 1,
    5, 4,
    7, 6,
    9, 8,
    11, 10,
    12, 10,
    14, 13,
    16, 15,
    18, 17,
    19, 17,
    21, 20,
    23, 22,
    24, 22,
    26, 25,
    28, 27,
    30, 29,
    31, 29,
    33, 32,
    35, 34,
    37, 36,
    39, 38,
    40, 38,
    42, 41,
    44, 43,
    45, 43,
    47, 46,
    49, 48,
    51, 50,
    52, 50,
    54, 53,
    56, 55,
    58, 57,
    60, 59,
    61, 59,
    63, 62,
    65, 64,
    67, 66,
    68, 66,
    70, 69,
    72, 71,
    74, 73,
    76, 75,
    77, 75,
    79, 78,
    81, 80,
    82, 80,
    84, 83,
    86, 85,
    2, 1,
    3, 1,
    5, 4,
    7, 6,
    9, 8,
    11, 10,
    12, 10,
    14, 13,
    16, 15,
    18, 17,
    19, 17,
    21, 20,
    23, 22,
    24, 22,
    26, 25,
    28, 27,
    51, 50,
    52, 50,
    54, 53,
    56, 55,
    58, 57,
    60, 59,
    61, 59,
    63, 62,
    65, 64,
    67, 66,
    68, 66,
    70, 69,
    72, 71,
    74, 73,
    76, 75,
    77, 75,
    79, 78,
    81, 80,
    82, 80,
    84, 83,
    86, 85,

  % k = 2
    1, 2,
    2, 3,
    3, 4,
    4, 5,
    5, 6,
    6, 7,
    7, 8,
    8, 9,
    9, 10,
    10, 11,
    11, 11,
    0, 0,
    0, 0,
    0, 0,
    0, 0,
    0, 0,
    0, 0,
    0, 0,
    0, 0,
    0, 0,
    0, 0,
    0, 0,
    0, 0,
    0, 0,
    0, 0,
    0, 0,
    0, 0,
    0, 0,
    0, 0,
    0, 0,
    0, 0,
    0, 0,
    0, 0,
    0, 0,
    0, 0,
    0, 0,
    0, 0,
    0, 0,
    0, 0,
    0, 0,
    0, 0,
    0, 0,
    0, 0,
    0, 0,
    0, 0,
    0, 0,
    0, 0,
    0, 0,
    0, 0,
    0, 0,
    0, 0,
    0, 0,
    0, 0,
    0, 0,
    0, 0,
    0, 0,
    0, 0,
    0, 0,
    0, 0,
    0, 0,
    0, 0,
    0, 0,
    0, 0,
    0, 0,
    0, 0,
    0, 0,
    0, 0,
    0, 0,
    0, 0,
    0, 0,
    0, 0,
    0, 0,
    0, 0,
    0, 0,
    0, 0,
    0, 0,
    0, 0,
    0, 0,
    0, 0,
    0, 0,
    0, 0,
    0, 0,
    0, 0,
    0, 0,
    0, 0,
    0, 0
]);
d_nfa = array3d(1..2, 1..86, 1..2, [
  % k = 1
    {}, {},
    {}, {},
    {}, {},
    {}, {},
    {}, {},
    {}, {},
    {}, {},
    {}, {},
    {}, {},
    {}, {},
    {}, {},
    {}, {},
    {}, {},
    {}, {},
    {}, {},
    {}, {},
    {}, {},
    {}, {},
    {}, {},
    {}, {},
    {}, {},
    {}, {},
    {}, {},
    {}, {},
    {}, {},
    {}, {},
    {}, {},
    {}, {},
    {}, {},
    {}, {},
    {}, {},
    {}, {},
    {}, {},
    {}, {},
    {}, {},
    {}, {},
    {}, {},
    {}, {},
    {}, {},
    {}, {},
    {}, {},
    {}, {},
    {}, {},
    {}, {},
    {}, {},
    {}, {},
    {}, {},
    {}, {},
    {}, {},
    {}, {},
    {}, {},
    {}, {},
    {}, {},
    {}, {},
    {}, {},
    {}, {},
    {}, {},
    {}, {},
    {}, {},
    {}, {},
    {}, {},
    {}, {},
    {}, {},
    {}, {},
    {}, {},
    {}, {},
    {}, {},
    {}, {},
    {}, {},
    {}, {},
    {}, {},
    {}, {},
    {}, {},
    {}, {},
    {}, {},
    {}, {},
    {}, {},
    {}, {},
    {}, {},
    {}, {},
    {}, {},
    {}, {},
    {}, {},
    {}, {},
    {}, {},
    {}, {},

  % k = 2
    {}, {},
    {}, {},
    {}, {},
    {}, {},
    {}, {},
    {}, {},
    {}, {},
    {}, {},
    {}, {},
    {}, {},
    {}, {},
    {}, {},
    {}, {},
    {}, {},
    {}, {},
    {}, {},
    {}, {},
    {}, {},
    {}, {},
    {}, {},
    {}, {},
    {}, {},
    {}, {},
    {}, {},
    {}, {},
    {}, {},
    {}, {},
    {}, {},
    {}, {},
    {}, {},
    {}, {},
    {}, {},
    {}, {},
    {}, {},
    {}, {},
    {}, {},
    {}, {},
    {}, {},
    {}, {},
    {}, {},
    {}, {},
    {}, {},
    {}, {},
    {}, {},
    {}, {},
    {}, {},
    {}, {},
    {}, {},
    {}, {},
    {}, {},
    {}, {},
    {}, {},
    {}, {},
    {}, {},
    {}, {},
    {}, {},
    {}, {},
    {}, {},
    {}, {},
    {}, {},
    {}, {},
    {}, {},
    {}, {},
    {}, {},
    {}, {},
    {}, {},
    {}, {},
    {}, {},
    {}, {},
    {}, {},
    {}, {},
    {}, {},
    {}, {},
    {}, {},
    {}, {},
    {}, {},
    {}, {},
    {}, {},
    {}, {},
    {}, {},
    {}, {},
    {}, {},
    {}, {},
    {}, {},
    {}, {},
    {}, {}
]);
